53 37 45 59 47 1 43 33 42 5 22 85 41 74 44 11 79 83 36 78 60 21 39 62 29 13 40 27 46 81 12 77 70 92 30 57 34 7 99 80 38 68 54 4 49 31 6 88 48 65 76 26 58 15 87 69 9 96 67 89 25 50 93 19 14 28 94 86 24 55 72 20 16 84 17 2 61 3 51 23 56 35 18 8 91 52 63 97 10 90 66 73 64 75 0 82 71 32 95 98 

